study/exp-portion-fine-grain-4v100/run-logs-backup-12-06/unsupervised_samgraph_cache_graphsage_kKHop2_com-friendster_coll_cache_asymm_link_2_cache_rate_008_batch_size_2000_concurrent_impl_MPS.log
config:eval_tsp="2022-12-05 17:16:17"
config:arch=arch5
config:num_train_worker=3
config:num_sample_worker=1
config:sample_type=khop2
config:root_path=/nvme/graph-learning-copy/samgraph/
config:dataset=com-friendster
config:pipeline=False
config:cache_policy=coll_cache_asymm_link
config:cache_percentage=0.08
config:num_epoch=4
config:batch_size=2000
config:num_hidden=256
config:max_sampling_jobs=1
config:max_copying_jobs=1
config:barriered_epoch=1
config:presample_epoch=2
config:omp_thread_num=13
config:unsupervised=True
config:amp=True
config:rolling=0
config:fanout=[25, 10]
config:lr=0.003
config:dropout=0.5
config:single_gpu=False
config:max_num_step=1000
config:validate_configs=False
config:report_acc=0
config:dataset_path=/nvme/graph-learning-copy/samgraph/com-friendster
config:torch_thread_num=13
config:train_workers=['cuda:0', 'cuda:1', 'cuda:2']
config:sample_workers=['cuda:3']
config:num_fanout=2
config:num_layer=2
config:_run_mode=RunMode.FGNN
config:_log_level=warn
config:_profile_level=3
config:_empty_feat=0
config:_arch=5
config:_sample_type=5
config:_cache_policy=13
test_result:init:input_scale_factor=1.1
0 :  {link #0 : 1}, {link #1 : 2},
1 :  {link #0 : 2}, {link #1 : 0},
2 :  {link #0 : 0}, {link #1 : 1},
0 :  {link #0 : 1}, {link #1 : 2},
1 :  {link #0 : 2}, {link #1 : 0},
2 :  {link #0 : 0}, {link #1 : 1},
0 :  {link #0 : 1}, {link #1 : 2},
1 :  {link #0 : 2}, {link #1 : 0},
2 :  {link #0 : 0}, {link #1 : 1},
Set parameter WLSAccessID
Set parameter WLSSecret
Set parameter LicenseID
Set parameter TimeLimit to value 200
Set parameter MIPGap to value 0.05
Set parameter GomoryPasses to value 0
Set parameter Aggregate to value 0
Set parameter LogFile to value "cppsolver.log"
Set parameter Threads to value 26
Academic license - for non-commercial use only - registered to xiaoniu.sxn@sjtu.edu.cn
Gurobi Optimizer version 9.5.1 build v9.5.1rc2 (linux64)
Thread count: 40 physical cores, 80 logical processors, using up to 26 threads
Academic license - for non-commercial use only - registered to xiaoniu.sxn@sjtu.edu.cn
Optimize a model with 21582 rows, 10274 columns and 64716 nonzeros
Model fingerprint: 0x69ca662b
Variable types: 4 continuous, 10270 integer (10270 binary)
Coefficient statistics:
  Matrix range     [2e-04, 2e+03]
  Objective range  [1e+00, 1e+00]
  Bounds range     [1e+00, 1e+00]
  RHS range        [1e+00, 2e+03]
Found heuristic solution: objective 2.000000e+09
Presolve removed 12326 rows and 0 columns
Presolve time: 0.09s
Presolved: 9256 rows, 10274 columns, 38012 nonzeros
Found heuristic solution: objective 92456.693627
Variable types: 4 continuous, 10270 integer (10270 binary)

Root relaxation: objective 1.988948e+04, 6787 iterations, 0.08 seconds (0.05 work units)

    Nodes    |    Current Node    |     Objective Bounds      |     Work
 Expl Unexpl |  Obj  Depth IntInf | Incumbent    BestBd   Gap | It/Node Time

     0     0 19889.4810    0   16 92456.6936 19889.4810  78.5%     -    0s
H    0     0                    20035.069307 19889.4810  0.73%     -    0s
H    0     0                    19956.037173 19889.4810  0.33%     -    0s

Cutting planes:
  Cover: 3
  StrongCG: 2
  RLT: 2

Explored 1 nodes (8554 simplex iterations) in 0.36 seconds (0.31 work units)
Thread count was 26 (of 80 available processors)

Solution count 4: 19956 20035.1 92456.7 2e+09 

Optimal solution found (tolerance 5.00e-02)
Best objective 1.995603717255e+04, best bound 1.988948100167e+04, gap 0.3335%
coll_cache:optimal_local_rate=0.269976,0.300209,0.276963,
coll_cache:optimal_remote_rate=0.577172,0.546939,0.570185,
coll_cache:optimal_cpu_rate=0.152852,0.152852,0.152852,
z=19956
test_result:init:feat_nbytes=67182966784
test_result:init:cache_nbytes=5363856384
test_result:init:feat_nbytes=67182966784
test_result:init:cache_nbytes=5373772800
test_result:init:feat_nbytes=67182966784
test_result:init:cache_nbytes=5372934144
[Train  Worker 1/3] Started with PID 128738(Tesla V100-SXM2-16GB)
[Train  Worker 1] run train for 4 epochs with 1002 steps
[Train  Worker 2/3] Started with PID 128741(Tesla V100-SXM2-16GB)
[Train  Worker 2] run train for 4 epochs with 1002 steps
[CUDA] cuda0: usage: 12.48 GB
[SAM] cuda0 data alloc        : 0.00 Bytes
[SAM] cuda0 workspace         : 2.73 GB
[SAM] cuda0 workspace reserve : 1.36 GB
[SAM] cuda0 total             : 2.73 GB
[Train  Worker 0/3] Started with PID 128736(Tesla V100-SXM2-16GB)
[Train  Worker 0] run train for 4 epochs with 1002 steps
Epoch 00000 | Epoch Time 10.5535 | Total Train Time(Profiler) 4.2013 | Copy Time 6.3205
[CUDA] cuda0: usage: 12.48 GB
[SAM] cuda0 data alloc        : 0.00 Bytes
[SAM] cuda0 workspace         : 2.73 GB
[SAM] cuda0 workspace reserve : 1.36 GB
[SAM] cuda0 total             : 2.73 GB
Epoch 00001 | Epoch Time 9.4026 | Total Train Time(Profiler) 3.0665 | Copy Time 6.3024
[CUDA] cuda0: usage: 12.48 GB
[SAM] cuda0 data alloc        : 0.00 Bytes
[SAM] cuda0 workspace         : 2.73 GB
[SAM] cuda0 workspace reserve : 1.36 GB
[SAM] cuda0 total             : 2.73 GB
Epoch 00002 | Epoch Time 9.4268 | Total Train Time(Profiler) 3.0968 | Copy Time 6.2996
[CUDA] cuda0: usage: 12.48 GB
[SAM] cuda0 data alloc        : 0.00 Bytes
[SAM] cuda0 workspace         : 2.73 GB
[SAM] cuda0 workspace reserve : 1.36 GB
[SAM] cuda0 total             : 2.73 GB
Epoch 00003 | Epoch Time 9.4324 | Total Train Time(Profiler) 3.0821 | Copy Time 6.3207
[Train  Worker 1] Avg Epoch Time 9.4206 | Train Total Time(Profiler) 3.0678 | Copy Time 6.3209
[Train  Worker 0] Avg Epoch Time 9.4206 | Train Total Time(Profiler) 3.0818 | Copy Time 6.3076
[Train  Worker 2] Avg Epoch Time 9.4206 | Train Total Time(Profiler) 3.1013 | Copy Time 6.2903
    [Step(average) Profiler Level 1 E3 S1001]
        L1  sample           0.005451 | send           0.001270
        L1  recv             0.000000 | copy           0.000000 | convert time 0.000000 | train  0.000000
        L1  feature nbytes 0.00 Bytes | label nbytes 0.00 Bytes
        L1  id nbytes      0.00 Bytes | graph nbytes 0.00 Bytes
        L1  miss nbytes    0.00 Bytes | remote nbytes 0.00 Bytes
        L1  num nodes         1262248 | num samples     1406472
    [Step(average) Profiler Level 2 E3 S1001]
        L2  shuffle     0.000075 | core sample  0.001980 | id remap        0.003212
        L2  graph copy  0.000000 | id copy      0.000000 | cache feat copy 0.000000
        L2  last layer sample time 0.000298 | size 57472.456088
    [Step(average) Profiler Level 3 E3 S1001]
        L3  khop sample coo  0.001675 | khop sort coo      0.000000 | khop count edge     0.000036 | khop compact edge 0.000218
        L3  walk sample coo  0.000000 | walk topk total    0.000000 | walk topk step1     0.000000 | walk topk step2   0.000000
        L3  walk topk step3  0.000000 | walk topk step4    0.000000 | walk topk step5     0.000000
        L3  walk topk step6  0.000000 | walk topk step7    0.000000
        L3  remap unique     0.000173 | remap populate     0.002732 | remap mapnode       0.000000 | remap mapedge     0.000493
        L3  cache get_index  0.000000 | cache copy_index   0.000000 | cache extract_miss  0.000000
        L3  cache copy_miss  0.000000 | cache combine_miss 0.000000 | cache combine cache 0.000000 | cache combine remote 0.000000
        L3  label extract  0.000000
    [Init Profiler Level 1]
        L1  init     6.6457 | sampler init    50.5543 | trainer init 0.0000
    [Init Profiler Level 2]
        L2  load ds        10.0878 | init queue          23.2946
        L2  presample      22.0449 | build interal ds     1.7700
        L2  build cache     0.0000
    [Init Profiler Level 3]
        L3  load dataset: mmap     6.6428 | copy         3.4450
        L3  dist queue: alloc      0.0007 | pin         23.2939 | push     0.0000
        L3  presample: init        0.1807
        L3  presample: sample     11.0073 | copy         0.7942
        L3  presample: count       9.6108 | sort         0.1991
        L3  presample: reset       0.0013 | get rank     0.0248
        L3  internal: cuda ctx     1.5275 | cuda stream     0.2359
[Sample Worker 0/1] Started with PID 128734(Tesla V100-SXM2-16GB)
[Sample Worker 0] run sample for 4 epochs with 1002 steps
[Sample Worker 0] Avg Sample Total Time 6.7455 | Sampler Total Time(Profiler) 6.7345
test_result:sample_time=5.4621
test_result:get_cache_miss_index_time=0.0000
test_result:enqueue_samples_time=1.2724
test_result:epoch_time:sample_total=6.7455
[CUDA] cuda0: usage: 12.48 GB
[SAM] cuda0 data alloc        : 0.00 Bytes
[SAM] cuda0 workspace         : 2.73 GB
[SAM] cuda0 workspace reserve : 1.36 GB
[SAM] cuda0 total             : 2.73 GB
    [Step(average) Profiler Level 1 E3 S1001]
        L1  sample           0.000000 | send           0.000000
        L1  recv             0.001439 | copy           0.018881 | convert time 0.000448 | train  0.008784
        L1  feature nbytes    1.20 GB | label nbytes   15.62 KB
        L1  id nbytes      0.00 Bytes | graph nbytes 0.00 Bytes
        L1  miss nbytes     192.88 MB | remote nbytes  693.21 MB
        L1  num nodes               0 | num samples           0
    [Step(average) Profiler Level 2 E3 S1001]
        L2  shuffle     0.000000 | core sample  0.000000 | id remap        0.000000
        L2  graph copy  0.000003 | id copy      0.000000 | cache feat copy 0.017439
        L2  last layer sample time 0.000000 | size 0.000000
    [Step(average) Profiler Level 3 E3 S1001]
        L3  khop sample coo  0.000000 | khop sort coo      0.000000 | khop count edge     0.000000 | khop compact edge 0.000000
        L3  walk sample coo  0.000000 | walk topk total    0.000000 | walk topk step1     0.000000 | walk topk step2   0.000000
        L3  walk topk step3  0.000000 | walk topk step4    0.000000 | walk topk step5     0.000000
        L3  walk topk step6  0.000000 | walk topk step7    0.000000
        L3  remap unique     0.000000 | remap populate     0.000000 | remap mapnode       0.000000 | remap mapedge     0.000000
        L3  cache get_index  0.000788 | cache copy_index   0.000000 | cache extract_miss  0.000000
        L3  cache copy_miss  0.000000 | cache combine_miss 0.016624 | cache combine cache 0.001118 | cache combine remote 0.009104
        L3  label extract  0.000016
    [Step(max) Profiler Level 1 E3 S1001]
        L1  sample           0.000000 | send           0.000000
        L1  recv             0.000000 | copy           0.000000 | convert time 0.000000 | train  0.000000
        L1  feature nbytes 0.00 Bytes | label nbytes 0.00 Bytes
        L1  id nbytes      0.00 Bytes | graph nbytes   10.92 MB
        L1  miss nbytes    0.00 Bytes | remote nbytes 0.00 Bytes
        L1  num nodes               0 | num samples           0
    [Step(max) Profiler Level 2 E3 S1001]
        L2  shuffle     0.000000 | core sample  0.000000 | id remap        0.000000
        L2  graph copy  0.000000 | id copy      0.000000 | cache feat copy 0.000000
        L2  last layer sample time 0.000000 | size 0.000000
    [Step(max) Profiler Level 3 E3 S1001]
        L3  khop sample coo  0.000000 | khop sort coo      0.000000 | khop count edge     0.000000 | khop compact edge 0.000000
        L3  walk sample coo  0.000000 | walk topk total    0.000000 | walk topk step1     0.000000 | walk topk step2   0.000000
        L3  walk topk step3  0.000000 | walk topk step4    0.000000 | walk topk step5     0.000000
        L3  walk topk step6  0.000000 | walk topk step7    0.000000
        L3  remap unique     0.000000 | remap populate     0.000000 | remap mapnode       0.000000 | remap mapedge     0.000000
        L3  cache get_index  0.000000 | cache copy_index   0.000000 | cache extract_miss  0.000000
        L3  cache copy_miss  0.000000 | cache combine_miss 0.000000 | cache combine cache 0.000000 | cache combine remote 0.000000
        L3  label extract  0.000000
    [Step(min) Profiler Level 1 E3 S1001]
        L1  sample           0.000000 | send           0.000000
        L1  recv             0.000000 | copy           0.000000 | convert time 0.000000 | train  0.000000
        L1  feature nbytes 0.00 Bytes | label nbytes 0.00 Bytes
        L1  id nbytes      0.00 Bytes | graph nbytes   10.62 MB
        L1  miss nbytes    0.00 Bytes | remote nbytes 0.00 Bytes
        L1  num nodes               0 | num samples           0
    [Step(min) Profiler Level 2 E3 S1001]
        L2  shuffle     0.000000 | core sample  0.000000 | id remap        0.000000
        L2  graph copy  0.000000 | id copy      0.000000 | cache feat copy 0.000000
        L2  last layer sample time 0.000000 | size 0.000000
    [Step(min) Profiler Level 3 E3 S1001]
        L3  khop sample coo  0.000000 | khop sort coo      0.000000 | khop count edge     0.000000 | khop compact edge 0.000000
        L3  walk sample coo  0.000000 | walk topk total    0.000000 | walk topk step1     0.000000 | walk topk step2   0.000000
        L3  walk topk step3  0.000000 | walk topk step4    0.000000 | walk topk step5     0.000000
        L3  walk topk step6  0.000000 | walk topk step7    0.000000
        L3  remap unique     0.000000 | remap populate     0.000000 | remap mapnode       0.000000 | remap mapedge     0.000000
        L3  cache get_index  0.000000 | cache copy_index   0.000000 | cache extract_miss  0.000000
        L3  cache copy_miss  0.000000 | cache combine_miss 0.000000 | cache combine cache 0.000000 | cache combine remote 0.000000
        L3  label extract  0.000000
    [Init Profiler Level 1]
        L1  init     6.6457 | sampler init     0.0000 | trainer init 83.6621
    [Init Profiler Level 2]
        L2  load ds         6.6428 | init queue          23.1740
        L2  presample       0.0000 | build interal ds     1.4984
        L2  build cache    58.9855
    [Init Profiler Level 3]
        L3  load dataset: mmap     6.6428 | copy         0.0000
        L3  dist queue: alloc      0.0007 | pin         23.1733 | push     0.0000
        L3  presample: init        0.0000
        L3  presample: sample      0.0000 | copy         0.0000
        L3  presample: count       0.0000 | sort         0.0000
        L3  presample: reset       0.0000 | get rank     0.0000
        L3  internal: cuda ctx     1.4983 | cuda stream     0.0001
|===========================================================================|
|                  PyTorch CUDA memory summary, device ID 0                 |
|---------------------------------------------------------------------------|
|            CUDA OOMs: 0            |        cudaMalloc retries: 0         |
|===========================================================================|
|        Metric         | Cur Usage  | Peak Usage | Tot Alloc  | Tot Freed  |
|---------------------------------------------------------------------------|
| Allocated memory      |   17751 KB |  783876 KB |    2018 GB |    2018 GB |
|       from large pool |   12881 KB |  782449 KB |    2006 GB |    2006 GB |
|       from small pool |    4870 KB |    6657 KB |      12 GB |      12 GB |
|---------------------------------------------------------------------------|
| Active memory         |   17752 KB |  783876 KB |    2018 GB |    2018 GB |
|       from large pool |   12881 KB |  782449 KB |    2006 GB |    2006 GB |
|       from small pool |    4871 KB |    6657 KB |      12 GB |      12 GB |
|---------------------------------------------------------------------------|
| GPU reserved memory   |     778 MB |     778 MB |     778 MB |       0 B  |
|       from large pool |     770 MB |     770 MB |     770 MB |       0 B  |
|       from small pool |       8 MB |       8 MB |       8 MB |       0 B  |
|---------------------------------------------------------------------------|
| Non-releasable memory |   21160 KB |  689984 KB |    1956 GB |    1956 GB |
|       from large pool |   19887 KB |  688107 KB |    1941 GB |    1941 GB |
|       from small pool |    1273 KB |    4550 KB |      15 GB |      15 GB |
|---------------------------------------------------------------------------|
| Allocations           |      39    |      56    |  183068    |  183029    |
|       from large pool |       3    |      14    |   65464    |   65461    |
|       from small pool |      36    |      45    |  117604    |  117568    |
|---------------------------------------------------------------------------|
| Active allocs         |      40    |      56    |  183068    |  183028    |
|       from large pool |       3    |      14    |   65464    |   65461    |
|       from small pool |      37    |      45    |  117604    |  117567    |
|---------------------------------------------------------------------------|
| GPU reserved segments |      10    |      10    |      10    |       0    |
|       from large pool |       6    |       6    |       6    |       0    |
|       from small pool |       4    |       4    |       4    |       0    |
|---------------------------------------------------------------------------|
| Non-releasable allocs |      13    |      23    |   77980    |   77967    |
|       from large pool |       3    |       9    |   42140    |   42137    |
|       from small pool |      10    |      17    |   35840    |   35830    |
|---------------------------------------------------------------------------|
| Oversize allocations  |       0    |       0    |       0    |       0    |
|---------------------------------------------------------------------------|
| Oversize GPU segments |       0    |       0    |       0    |       0    |
|===========================================================================|

test_result:epoch_time:copy_time=6.3076
test_result:convert_time=0.1497
test_result:train_time=2.9322
test_result:epoch_time:train_total=3.0818
test_result:cache_percentage=0.0800
test_result:cache_hit_rate=1.0000
test_result:run_time=65.8124
